objective value:                     3.36247230761405
x(0,2,0)                                            1 	(obj:0)
x(1,4,0)                                            1 	(obj:0)
x(2,3,0)                                            1 	(obj:0)
x(3,1,0)                                            1 	(obj:0)
x(4,10,0)                                           1 	(obj:0)
x(10,0,0)                                           1 	(obj:0)
xc(0,9)                                             1 	(obj:0)
xc(3,2)                                             1 	(obj:0)
u(1,0)                               1.89009388246131 	(obj:0)
u(2,0)                              0.717053830161993 	(obj:0)
u(3,0)                               0.96097171572844 	(obj:0)
u(4,0)                                2.6023695817075 	(obj:0)
u(10,0)                              3.36247230761405 	(obj:0)
u(11,0)                               0.1510095837656 	(obj:0)
u(12,0)                               0.6991342751574 	(obj:0)
u(13,0)                             0.776244985528281 	(obj:0)
u(14,0)                             0.738643131989711 	(obj:0)
u(15,0)                                0.061745272264 	(obj:0)
u(16,0)                             0.379979673824401 	(obj:0)
u(17,0)                             0.215786990875301 	(obj:0)
u(18,0)                            0.0683789777224995 	(obj:0)
u(19,0)                               0.2716825582146 	(obj:0)
f(0,9,0)                                            1 	(obj:0)
f(0,9,1)                                            1 	(obj:0)
f(0,9,2)                                            1 	(obj:0)
f(0,9,3)                                            1 	(obj:0)
f(0,9,4)                                            1 	(obj:0)
f(1,4,1)                                            1 	(obj:0)
f(1,4,2)                                            1 	(obj:0)
f(1,4,3)                                            1 	(obj:0)
f(2,3,2)                                            1 	(obj:0)
f(3,1,2)                                            1 	(obj:0)
f(3,1,3)                                            1 	(obj:0)
f(4,10,1)                                           1 	(obj:0)
f(4,10,2)                                           1 	(obj:0)
f(4,10,3)                                           1 	(obj:0)
f(4,10,4)                                           1 	(obj:0)
f(10,0,1)                                           1 	(obj:0)
f(10,0,2)                                           1 	(obj:0)
f(10,0,3)                                           1 	(obj:0)
f(10,0,4)                                           1 	(obj:0)
z_r(0,)                              3.36247230761405 	(obj:0)
z                                    3.36247230761405 	(obj:1)
